nLocations = 5;
nCities = 8;
nTypes = 3;

p = [10 3 4 1 10 2 8 10];
posCities = [[2 1] [5 2] [5 0] [2 3] [6 0] [6 6] [2 6] [0 1]];
posLocations = [[1 5] [5 3] [2 4] [1 4] [1 3]];

d_city = [3 3 8];
cap = [13 16 14];
cost = [44 16 38];

d_center = 3.0;
